7 8 9 10 11 14 15 16 17 18 570 569 568 19 20 21 13 12 23 22 24 25 26 27 28 29 31 30 32 33 34 35 36 37 38 40 41 39 42 43 44 45 46 47 48 49 91 92 93 89 88 87 90 85 86 82 83 84 51 50 52 54 53 55 56 58 57 81 59 60 61 63 62 79 80 78 77 76 64 75 74 73 72 71 65 66 67 68 70 69 124 125 126 127 128 116 115 114 112 113 161 160 162 168 163 167 166 164 154 155 156 159 157 158 145 146 142 143 144 136 135 134 133 132 131 130 129 137 138 139 140 141 151 150 149 152 148 147 153 165 203 204 202 201 200 199 198 208 207 206 205 197 196 195 194 184 185 183 182 179 181 180 169 171 170 172 175 174 173 108 109 111 110 107 542 541 543 544 545 546 547 103 104 105 106 117 123 122 121 120 119 118 94 97 95 96 98 99 100 552 553 554 555 556 557 558 559 550 551 101 102 548 549 560 561 562 563 564 565 566 567 474 473 475 476 477 478 479 480 481 482 483 484 485 486 487 535 536 537 539 538 540 176 177 178 187 188 186 227 189 228 229 230 231 534 488 533 532 489 531 530 529 528 236 235 234 233 232 225 226 190 191 192 193 219 218 220 221 222 224 223 209 210 211 212 213 214 215 217 216 246 247 245 244 243 239 238 240 237 509 510 511 512 527 513 514 515 516 517 520 521 522 523 526 525 492 491 490 493 524 494 472 471 495 518 519 497 496 464 466 467 465 470 469 468 571 460 459 463 462 461 452 453 499 500 501 498 502 503 504 505 308 309 310 311 451 312 313 316 314 315 374 375 376 377 378 379 380 381 390 389 388 391 392 393 394 397 398 395 396 371 372 373 322 321 320 319 317 318 305 306 304 303 307 506 507 508 302 301 241 242 248 249 250 251 252 254 253 255 256 257 300 299 258 259 260 261 262 263 264 265 266 298 267 271 272 273 274 275 291 292 269 268 270 293 294 295 296 297 324 323 325 326 327 328 329 366 367 370 369 368 365 342 330 331 332 288 289 290 276 277 278 279 282 281 280 287 286 285 284 283 334 335 333 336 337 338 339 340 341 343 344 345 346 364 363 362 347 348 349 350 351 352 413 414 415 416 417 419 418 410 411 412 356 355 353 354 357 358 359 361 360 401 402 403 400 404 405 406 399 407 408 409 384 383 385 387 386 382 425 424 423 422 421 420 426 427 428 429 431 430 432 437 438 436 435 434 433 445 444 443 442 446 447 448 449 450 441 440 439 454 455 456 457 458 1 2 3 4 0 573 572 5 6